layers = 3;
width = [8, 8, 6];
nodes = 22;
edges = 24;
start = [ 9, 15, 13,  1, 12, 14, 11,  8,  9,  5, 13, 13,  9,  6,  5,  5,  8, 16, 12,  6, 12,  4,  6,  7];
end =   [17, 20, 22, 15, 17, 20, 22, 10, 18, 10, 21, 17, 20, 15, 13, 15, 16, 19, 21, 12, 18, 14, 10, 15];
